Solver command line: []

Read LP format model from file C:\Users\wlhlm\AppData\Local\Temp\tmpdjzm_yaw.pyomo.lp
Reading time = 2.48 seconds
objective: 994224 rows, 875999 columns, 2246886 nonzeros
Set parameter MIPGap to value 0.03
Gurobi Optimizer version 12.0.1 build v12.0.1rc0 (win64 - Windows 11.0 (26100.2))

CPU model: Intel(R) Core(TM) Ultra 7 258V, instruction set [SSE2|AVX|AVX2]
Thread count: 8 physical cores, 8 logical processors, using up to 8 threads

Non-default parameters:
MIPGap  0.03

Optimize a model with 994224 rows, 875999 columns and 2246886 nonzeros
Model fingerprint: 0x73d56850
Model has 8759 quadratic constraints
Variable types: 753360 continuous, 122639 integer (105120 binary)
Coefficient statistics:
  Matrix range     [8e-03, 2e+02]
  QMatrix range    [1e+00, 1e+00]
  Objective range  [1e-02, 5e+02]
  Bounds range     [1e+00, 3e+00]
  RHS range        [8e-05, 1e+04]
Presolve removed 786986 rows and 653225 columns
Presolve time: 0.57s
Presolved: 207238 rows, 222774 columns, 646545 nonzeros
Variable types: 142296 continuous, 80478 integer (71718 binary)
Performing another presolve...
Presolve removed 70246 rows and 70246 columns (presolve time = 7s)...
Presolve removed 70246 rows and 70246 columns
Presolve time: 7.43s
Deterministic concurrent LP optimizer: primal and dual simplex
Showing primal log only...


Root simplex log...

Iteration    Objective       Primal Inf.    Dual Inf.      Time
       0    5.6104257e+07   3.262681e+07   4.551537e+13      9s
   21060    5.8637436e+07   1.011583e+04   1.396149e+10     10s
Concurrent spin time: 0.01s

Solved with dual simplex

Root simplex log...

Iteration    Objective       Primal Inf.    Dual Inf.      Time
   65470    4.7736685e+07   0.000000e+00   0.000000e+00     13s

Root relaxation: objective 4.773668e+07, 65470 iterations, 4.16 seconds (5.51 work units)
Total elapsed time = 13.01s (DegenMoves)

    Nodes    |    Current Node    |     Objective Bounds      |     Work
 Expl Unexpl |  Obj  Depth IntInf | Incumbent    BestBd   Gap | It/Node Time

     0     0 4.7737e+07    0  438          - 4.7737e+07      -     -   15s
H    0     0                    4.790286e+07 4.7737e+07  0.35%     -   16s

Explored 1 nodes (73846 simplex iterations) in 16.81 seconds (21.06 work units)
Thread count was 8 (of 8 available processors)

Solution count 1: 4.79029e+07 

Optimal solution found (tolerance 3.00e-02)
Best objective 4.790285985743e+07, best bound 4.773668472938e+07, gap 0.3469%

